variable        output_freq   string    100
variable        dump_freq     string    1000
variable        input         string    CG

units           real
atom_style      full 

pair_style      lj/cut 12.0
#pair_modify     mix arithmetic 

bond_style      harmonic
angle_style     harmonic	
dihedral_style  harmonic	









read_data       ${input}.data

pair_coeff      * *  0.0 3.0

neighbor        2.0 bin

timestep        1.0


thermo ${output_freq}
#---------------------------
# Start Simulation
#---------------------------


velocity all create 310.0 97345 rot yes dist gaussian

#fix rig all shake 0.0001 20 10 b 1 a 1

fix eq all langevin 310 310 500.0 8329798
fix eqr all nve

run 100000

dump            1 all custom ${dump_freq} CG.lammpstrj id type x y z fx fy fz
dump_modify     1 sort id

dump            12 all dcd ${dump_freq} CG.dcd
dump_modify     12 sort id

run 100000000 

unfix eq
unfix eqr





write_restart   lmp.restart
